GLPSOL: GLPK LP/MIP Solver, v4.55
Parameter(s) specified in the command line:
 -m tmp.mod
Reading model section from tmp.mod...
Reading data section from tmp.mod...
5073 lines were read
Generating obj...
Generating kirhoff...
Generating init_charge...
Generating batt_size...
Model has been successfully generated
GLPK Simplex Optimizer, v4.55
4417 rows, 8484 columns, 18108 non-zeros
Preprocessing...
3990 rows, 8312 columns, 17680 non-zeros
Scaling...
 A: min|aij| =  1.000e+00  max|aij| =  1.000e+00  ratio =  1.000e+00
Problem data seem to be well scaled
Constructing initial basis...
Size of triangular part is 3451
      0: obj =   0.000000000e+00  infeas =  1.583e+03 (539)
    500: obj =   0.000000000e+00  infeas =  1.319e+03 (357)
   1000: obj =   2.900000000e+01  infeas =  7.230e+02 (216)
   1500: obj =   1.570000000e+02  infeas =  2.460e+02 (152)
*  1898: obj =   3.283333333e+02  infeas =  0.000e+00 (132)
*  2000: obj =   2.973333333e+02  infeas =  3.553e-15 (132)
*  2481: obj =   1.780000000e+02  infeas =  0.000e+00 (132)
OPTIMAL LP SOLUTION FOUND
Time used:   0.7 secs
Memory used: 16.3 Mb (17070510 bytes)
#OUTPUT:
178
-103 0 0 -4 0 0 0 -62 0 0 0 0 -2 0 -29 0 0 0 0 -91 2 0 0 0 0 0 0 0 6 0 -8 0 1 0 0 -1 -2 -28 0 0 0 -5 -22 0 0 0 0 -1 0 -2 0 0 -22 0 0 0 0 -9 0 0 0 0 0 0 0 0 0 0 0 0 0 0 0 0 -9 0 0 0 0 0 0 -3 0 0 0 0 -1 0 0 8 0 0 0 0 -1 0 0 0 0 0 0 -28 0 0 0 0 5 0 -23 0 0 -28 5 0 0 0 0 0 0 -4 0 0 0 0 0 0 0 0 0 0 0 0 0 0 0 0 0 0 0 0 0 0 0 0 0 0 0 0 0 0 0 0 0 0 0 0 0 0 0 -1 0 -29 0 0 0 0 1 0 0 0 0 0 0 -4 0 0 0 0 0 0 0 0 0 0 0 -1 0 0 0 0 0 0 0 0 0 0 0 0 1 0 0 0 0 0 0 13 -13 0 0 0 0 0 0 0 0 0 0 0 0 0 0 0 0 0 0 0 0 0 0 0 0 -1 8 0 -6 0 0 0 0 0 0 0 0 0 0 0 0 0 0 -3 0 0 0 0 0 0 -28 0 0 0 0 0 0 0 0 0 0 0 0 0 0 0 0 0 -20 0 24 1 0 0 0 0 0 0 0 0 0 0 0 0 0 -4 -8 0 0 0 0 0 2 0 0 0 0 0 -1 0 8 0 0 0 0 0 0 0 0 0 0 0 0 0 0 0 0 0 0 0 0 0 0 0 0 0 0 0 -37 0 0 0 0 4 0 0 0 0 0 0 0 0 0 0 0 0 0 0 0 0 0 0 0 0 0 0 0 -1 -1 0 1 0 0 0 0 0 0 0 0 0 0 0 0 0 2 0 0 0 -29 0 0 0 -37 0 0 1 0 0 0 0 0 0 0 0 0 0 0 0 0 0 0 0 0 0 0 0 0 0 0 0 5 0 0 0 0 0 0 0 0 0 0 0 0 0 0 0 0 0 0 0 5 0 0 0 0 0 0 0 0 0 0 0 0 0 0 0 0 -23 0 0 0 0 0 0 0 0 0 0 0 0 -1 0 0 0 0 0 0 0 -23 0 0 0 0 -1 0 0 0 0 23 0 0 0 0 0 0 0 0 0 0 0 0 0 0 1 0 0 0 0 0 0 0 0 0 0 -6 0 0 0 0 0 13 0 0 0 -20 0 0 0 6 0 0 24 0 0 0 20 0 4 0 0 0 0 29 0 0 0 0 0 0 0 0 -4 0 0 0 0 0 0 0 0 -1 -2 0 0 29 37 0 0 0 0 0 0 0 0 0 0 -5 0 0 0 -4 0 0 1 0 0 0 0 0 0 1 23 0 1 0 -23 0 0 0 0 0 0 -1 0 0 0 0 0 0 0 0 0 0 0 0 0 0 0 0 0 0 0 0 0 0 0 0 0 0 0 0 
-43 -5 -4 -1 0 0 0 -8 0 0 0 -4 2 -1 -7 0 0 0 0 -14 -22 0 0 0 0 -1 0 0 17 0 1 -5 5 0 0 -1 -2 -6 0 0 5 -5 -7 0 1 0 0 0 0 2 0 0 -7 4 0 0 0 -2 0 0 4 0 0 0 0 0 0 0 0 0 0 0 0 0 0 0 0 0 0 -5 0 4 0 0 0 0 -1 0 0 0 -4 0 1 0 0 0 0 0 0 0 0 -35 1 0 0 0 9 0 4 0 0 -6 5 0 0 -1 0 0 0 0 0 0 0 0 0 0 0 -4 0 0 0 0 0 0 0 0 0 4 0 1 0 0 0 0 0 0 -1 0 -4 0 0 0 0 0 0 0 0 1 0 -1 0 -1 0 0 0 0 0 0 0 0 0 0 0 0 0 0 0 0 0 0 0 0 0 0 0 0 0 0 0 0 0 0 1 0 0 0 -1 0 0 0 0 0 0 0 0 5 0 0 -2 4 0 0 0 0 0 0 0 0 0 0 0 4 0 -6 4 0 0 0 0 0 0 -1 0 0 -5 0 0 0 0 0 0 0 0 0 0 0 1 0 0 -3 0 -1 0 0 0 0 -35 0 0 0 0 0 0 0 0 0 0 0 0 0 0 0 0 0 0 0 -3 0 3 0 0 0 0 0 0 0 -5 0 0 0 0 -6 -8 0 0 0 0 0 2 0 0 0 0 0 1 0 0 0 0 0 0 0 0 0 0 0 0 0 0 0 0 0 0 0 0 0 0 0 0 0 0 0 0 0 -29 0 0 0 0 0 0 0 0 0 0 0 0 0 0 0 0 0 0 0 0 0 0 0 0 0 0 0 0 -1 -1 0 1 0 0 0 0 0 0 0 0 0 0 0 0 -1 2 0 0 0 -1 0 0 0 -29 0 0 0 0 0 0 -2 0 0 0 0 0 0 0 0 0 0 0 0 1 0 0 0 0 0 0 0 5 0 0 0 0 0 0 0 0 0 0 0 0 0 0 0 0 0 0 0 5 0 0 0 0 0 0 0 0 0 0 0 0 0 0 0 0 3 0 0 0 0 0 0 0 0 0 0 0 0 0 0 0 0 0 0 0 0 3 -63 0 0 0 -1 0 0 0 0 -4 0 0 0 0 0 0 0 0 0 0 0 0 0 0 0 0 0 0 -1 0 -2 0 0 0 0 6 0 0 -1 0 -1 5 0 0 0 -4 -4 -1 5 0 0 0 -3 0 0 0 0 5 6 0 0 0 0 29 0 0 0 0 0 0 0 0 0 0 0 0 0 0 0 0 0 0 -2 0 0 1 29 0 2 0 0 0 0 0 -1 0 0 -5 0 0 0 -4 0 0 1 0 0 0 0 0 -1 1 -3 0 1 0 4 0 0 0 0 0 0 0 0 0 0 0 0 0 0 0 0 0 0 0 0 0 0 0 0 0 0 0 0 0 0 0 0 0 0 0 
-83 -5 -4 -5 0 -5 1 -1 0 0 0 -4 0 0 -1 0 0 0 -6 -6 -17 0 0 0 0 -1 0 0 6 0 7 0 1 0 0 0 0 0 0 1 0 -5 2 0 0 0 0 -1 -72 0 0 0 2 0 0 0 0 2 0 0 0 0 0 0 0 0 0 0 0 0 0 0 0 0 0 0 0 0 0 0 0 0 0 0 0 0 -1 0 0 0 0 0 0 0 -1 0 0 0 0 0 0 -1 0 0 0 0 5 0 0 0 -6 0 5 0 0 0 0 0 0 0 0 0 0 0 0 0 0 0 0 0 0 0 0 0 0 0 0 0 0 0 0 0 0 0 0 0 0 0 0 0 0 0 0 0 0 0 0 0 0 0 0 0 0 0 0 0 1 0 0 0 0 0 0 0 0 0 0 0 0 0 0 0 0 0 0 0 0 0 0 0 0 0 0 0 0 0 0 0 -6 0 0 0 0 0 0 0 0 0 0 0 0 0 0 0 0 0 0 0 0 0 0 0 0 -1 0 0 0 0 0 0 0 0 0 0 0 0 0 0 0 0 0 0 1 0 0 0 0 0 0 0 0 0 0 0 0 0 -1 0 0 0 0 0 0 0 0 0 0 0 0 0 0 0 0 0 0 0 -2 1 0 0 0 0 0 0 0 0 0 0 0 0 0 -1 0 0 0 0 0 0 0 0 0 0 0 0 0 0 0 0 0 0 0 0 0 0 0 0 0 0 0 0 0 0 0 0 0 0 2 0 0 0 0 0 0 0 0 0 0 0 0 0 0 0 0 0 0 0 0 0 0 0 0 0 0 0 0 0 0 0 0 0 0 0 0 0 0 0 0 0 0 0 0 0 0 0 0 0 0 0 0 0 0 0 0 0 0 0 0 0 0 0 0 1 0 0 0 0 0 0 0 0 0 0 0 0 0 0 0 0 0 0 0 0 0 0 0 0 5 0 0 0 0 0 0 0 0 0 0 0 0 0 0 0 0 0 0 0 0 0 0 0 0 0 0 0 0 0 0 0 0 0 0 0 0 -3 0 0 0 0 0 0 0 0 0 0 0 0 0 0 0 0 0 0 0 0 -3 0 0 0 0 0 0 0 0 0 -2 0 0 0 0 0 0 0 0 0 0 0 0 0 0 1 0 0 0 0 0 0 0 0 0 0 0 0 0 0 0 0 0 0 0 0 0 0 0 0 0 0 0 -3 0 0 0 0 0 1 0 0 0 0 0 0 0 0 0 -2 0 0 0 0 0 0 0 0 0 0 0 0 -1 0 0 0 0 0 0 0 0 0 0 0 0 0 0 0 -5 0 0 0 0 0 0 0 0 0 0 0 0 0 0 3 0 0 0 2 0 0 0 0 0 0 -1 0 0 0 0 0 0 0 0 0 0 0 0 0 0 0 0 0 0 0 0 0 0 0 0 0 0 0 0 
-45 -5 -4 -6 0 0 0 -5 0 0 -1 -4 0 -4 -1 0 -1 0 0 -80 -1 1 0 0 0 -2 0 0 6 0 -9 -5 1 -4 0 0 0 0 0 1 0 -6 0 0 4 0 0 0 0 0 0 0 0 -22 -4 0 0 0 0 -2 -22 0 0 1 -2 0 0 0 -1 0 1 0 0 0 0 0 0 0 0 0 0 0 0 0 -1 0 -1 0 -1 0 0 0 0 0 0 0 0 0 0 0 0 0 0 0 0 0 5 0 1 0 0 0 5 0 0 0 0 0 0 0 0 0 0 0 0 0 0 0 0 0 0 0 0 0 0 0 0 -25 0 0 0 0 0 0 0 0 -3 0 0 0 0 0 0 0 0 3 0 -1 0 0 0 0 0 0 0 0 1 0 0 0 0 0 0 0 0 0 0 0 0 0 0 0 0 0 0 0 0 0 0 0 0 0 0 0 0 0 0 0 0 0 0 0 0 0 0 5 0 0 0 -25 0 0 0 0 0 0 0 0 0 0 0 72 0 -6 0 0 0 0 0 0 0 0 0 0 0 0 0 0 0 0 0 0 1 0 0 0 0 0 0 -2 0 0 0 1 0 0 0 0 0 0 0 0 0 0 0 0 0 0 0 0 0 0 0 0 0 0 1 1 0 0 0 0 0 0 0 0 -5 0 0 0 0 -6 -2 0 0 0 0 0 2 0 0 0 0 0 -9 0 0 0 0 0 0 0 0 0 0 0 -2 0 0 0 0 0 0 0 0 0 1 0 0 0 0 0 0 0 -29 0 0 0 0 0 0 0 0 0 2 0 0 0 0 0 0 0 0 0 0 0 0 2 0 0 0 0 0 0 0 0 1 0 0 0 0 0 0 0 0 0 0 0 0 0 0 0 0 0 0 0 0 0 -29 0 0 1 0 0 0 0 0 0 0 0 0 3 0 0 0 0 0 0 0 0 0 0 0 2 -2 0 5 0 0 0 0 0 0 0 0 0 0 0 0 3 0 0 0 0 0 0 0 0 3 0 0 0 0 0 0 0 0 0 0 0 0 0 0 0 0 0 0 0 0 3 0 0 0 0 0 0 0 0 0 0 0 0 0 0 0 0 0 0 0 0 0 0 0 0 0 0 0 0 2 0 0 0 0 0 0 0 0 0 0 1 -1 0 0 -4 4 -1 0 0 0 -2 0 0 -3 1 0 0 5 0 0 0 -69 0 -3 0 0 0 0 0 0 0 0 0 5 6 0 0 0 0 29 0 0 0 0 -1 0 0 0 0 0 -2 0 0 0 0 0 0 0 0 0 0 0 29 0 0 0 0 -1 -2 0 0 0 2 -5 0 0 0 0 0 0 1 0 0 0 0 -3 -1 1 0 0 0 0 0 0 0 0 -2 0 -1 0 1 0 0 0 0 0 0 0 0 0 0 0 0 0 0 0 0 0 0 0 0 0 0 0 0 0 0 0 
-83 -5 -4 -8 0 -6 0 -42 6 0 6 -4 -2 -2 0 -6 0 0 -6 -47 4 3 1 2 0 2 8 -14 7 1 -11 -6 1 -4 0 -1 -1 0 0 0 0 -6 -1 0 4 0 0 -1 0 0 0 0 -1 0 -6 18 2 0 0 0 0 0 0 0 0 -1 0 0 4 0 -3 0 -2 0 0 -1 -2 0 2 -1 0 0 -1 0 0 0 0 0 0 2 0 0 0 0 -1 0 0 0 -1 0 0 0 0 3 0 4 5 1 -24 0 -6 0 5 0 0 -1 0 0 0 0 0 0 1 0 0 0 15 0 0 0 1 0 0 0 -5 0 0 0 0 0 3 0 0 0 0 0 0 0 0 0 0 0 0 0 0 0 0 0 0 0 0 -31 0 0 0 -2 1 0 0 0 9 0 0 0 0 0 0 1 0 0 0 2 0 0 2 2 0 0 0 0 0 0 -1 -41 0 0 0 0 -8 0 0 0 0 0 0 6 0 2 0 0 0 0 0 -1 0 2 0 0 0 0 0 0 0 -6 0 0 0 0 1 0 0 0 2 0 0 0 0 0 0 6 0 -1 0 -5 1 0 60 0 0 -3 1 0 0 0 0 0 0 0 0 0 0 0 0 0 0 0 0 0 0 1 0 0 0 0 -28 0 24 1 1 0 0 0 0 0 0 0 -6 0 0 0 0 -6 -8 0 0 0 -1 0 3 0 -1 0 0 0 -15 0 2 0 0 6 0 0 0 0 1 0 0 0 -1 4 0 0 0 2 0 0 0 0 0 0 1 -5 0 0 -28 0 0 0 0 0 0 0 0 0 0 0 0 3 0 0 0 0 0 0 0 0 0 -2 0 0 0 0 0 -3 -3 6 0 0 0 0 0 0 0 0 0 0 0 0 0 -1 2 -3 0 -41 -31 -4 0 0 -28 0 -2 1 4 0 0 0 0 0 0 -4 0 -6 0 -4 0 0 0 0 1 0 0 0 0 -4 2 0 5 0 0 0 0 0 0 0 0 0 0 0 -2 0 0 0 0 -1 0 0 5 0 0 0 0 -1 0 0 0 -1 0 -1 0 0 0 0 0 -32 0 0 0 0 0 0 -41 0 0 0 0 0 0 0 0 0 0 0 0 0 -34 0 0 -1 0 -3 0 0 0 0 24 0 1 0 -2 0 0 0 0 0 0 0 0 0 0 1 -1 0 0 -4 4 0 -1 -2 0 0 0 0 0 0 -9 1 6 0 -2 0 -34 0 0 0 0 0 3 24 0 0 0 24 6 6 0 0 0 0 24 0 1 0 0 0 -1 5 0 0 0 -3 0 0 0 0 -6 0 -1 -2 3 0 31 28 -4 0 0 0 6 0 4 -1 2 -2 -5 2 1 0 -2 1 2 0 1 0 -2 0 0 -1 1 34 1 3 0 -24 2 -3 0 2 0 0 -1 1 0 0 0 0 0 0 0 0 0 0 0 0 0 0 0 0 0 0 0 0 0 0 0 0 0 0 0 
-45 -5 -4 -8 0 0 0 -3 6 0 6 -4 0 -3 0 0 3 0 0 -30 -22 3 1 0 0 12 0 0 1 17 0 0 1 -2 0 0 14 0 0 0 0 0 0 0 3 0 2 -1 0 0 0 0 0 14 -2 0 0 0 0 1 14 0 0 0 1 -1 0 0 0 0 -13 0 0 0 0 0 0 0 0 0 0 1 -1 0 0 -3 0 0 -5 0 0 0 -7 0 -1 0 0 0 2 0 0 1 -7 0 0 0 0 -7 -1 0 0 0 0 0 0 0 0 0 0 -6 0 0 -1 0 0 0 0 0 0 0 17 0 0 0 0 0 0 14 0 0 0 0 0 0 0 0 0 0 0 0 0 0 0 0 0 0 0 3 0 0 0 0 0 0 0 0 1 0 0 0 0 0 0 -6 0 0 0 -1 0 0 0 0 0 0 0 0 0 0 0 0 0 0 0 0 0 0 1 0 0 -3 0 0 0 0 0 0 0 0 0 14 0 0 0 -17 0 1 0 0 0 0 0 14 0 0 0 0 0 0 -3 0 0 0 0 0 -1 0 0 1 0 0 0 1 0 0 0 0 0 0 0 0 -1 1 0 -3 0 0 1 0 0 0 0 -3 0 0 0 0 0 0 0 3 0 0 0 0 -9 0 0 1 0 0 0 0 -6 0 0 0 0 0 0 0 0 -6 0 0 0 0 -1 0 0 0 3 0 0 0 -15 0 0 0 0 0 0 0 0 0 3 0 0 0 0 0 0 0 0 0 0 0 0 0 0 0 -3 0 0 0 -29 0 0 0 0 6 0 0 0 0 0 0 0 6 0 0 0 0 0 0 0 0 0 1 0 0 0 0 0 0 0 0 0 0 0 0 0 0 0 0 0 0 0 0 0 0 -7 -3 -5 0 0 0 0 0 -29 0 0 1 0 0 0 0 0 0 0 0 0 -6 0 0 0 0 0 0 0 0 0 0 0 5 -1 0 0 0 0 0 0 0 0 0 0 0 0 0 0 0 0 0 0 -17 0 0 0 0 0 0 0 1 0 0 0 0 0 -7 0 0 0 0 0 0 0 0 0 0 0 0 0 0 0 0 0 0 -1 0 0 0 0 0 0 0 0 0 0 -3 0 0 0 0 0 0 0 0 0 0 0 0 0 0 0 -96 0 0 0 0 0 1 0 0 0 -3 1 0 0 -1 0 1 0 0 0 -3 0 0 0 0 -1 0 -29 0 0 1 0 -1 0 0 0 0 2 7 0 6 0 -6 0 -10 29 0 0 0 0 0 3 0 0 -6 0 0 0 -3 0 0 0 0 -1 7 3 5 0 29 0 0 0 0 6 0 0 0 -5 1 0 0 17 0 0 -1 1 0 7 0 0 0 0 0 1 0 3 0 0 0 0 0 0 0 0 0 -1 0 0 0 0 0 0 0 0 0 0 0 0 0 0 0 0 0 0 0 0 0 0 0 0 0 0 0 0 
#OUTPUT END
Model has been successfully processed
